p sp 400 750
a 1 21 1
a 6 26 1
a 6 7 1
a 7 6 1
a 7 8 1
a 8 28 1
a 8 7 1
a 10 30 1
a 10 11 1
a 11 31 1
a 11 10 1
a 11 12 1
a 12 32 1
a 12 11 1
a 12 13 1
a 13 33 1
a 13 12 1
a 13 14 1
a 14 34 1
a 14 13 1
a 14 15 1
a 15 35 1
a 15 14 1
a 18 38 1
a 18 19 1
a 19 39 1
a 19 18 1
a 21 1 1
a 21 41 1
a 26 6 1
a 26 46 1
a 28 8 1
a 28 48 1
a 28 29 1
a 29 49 1
a 29 28 1
a 29 30 1
a 30 10 1
a 30 50 1
a 30 29 1
a 30 31 1
a 31 11 1
a 31 51 1
a 31 30 1
a 31 32 1
a 32 12 1
a 32 52 1
a 32 31 1
a 32 33 1
a 33 13 1
a 33 32 1
a 33 34 1
a 34 14 1
a 34 54 1
a 34 33 1
a 34 35 1
a 35 15 1
a 35 34 1
a 35 36 1
a 36 35 1
a 36 37 1
a 37 57 1
a 37 36 1
a 37 38 1
a 38 18 1
a 38 58 1
a 38 37 1
a 38 39 1
a 39 19 1
a 39 59 1
a 39 38 1
a 39 40 1
a 40 60 1
a 40 39 1
a 41 21 1
a 41 61 1
a 41 42 1
a 42 62 1
a 42 41 1
a 45 46 1
a 46 26 1
a 46 45 1
a 46 47 1
a 47 67 1
a 47 46 1
a 47 48 1
a 48 28 1
a 48 68 1
a 48 47 1
a 48 49 1
a 49 29 1
a 49 69 1
a 49 48 1
a 49 50 1
a 50 30 1
a 50 70 1
a 50 49 1
a 50 51 1
a 51 31 1
a 51 71 1
a 51 50 1
a 51 52 1
a 52 32 1
a 52 72 1
a 52 51 1
a 54 34 1
a 54 74 1
a 57 37 1
a 57 58 1
a 58 38 1
a 58 57 1
a 58 59 1
a 59 39 1
a 59 79 1
a 59 58 1
a 59 60 1
a 60 40 1
a 60 80 1
a 60 59 1
a 61 41 1
a 61 62 1
a 62 42 1
a 62 82 1
a 62 61 1
a 67 47 1
a 67 87 1
a 67 68 1
a 68 48 1
a 68 88 1
a 68 67 1
a 68 69 1
a 69 49 1
a 69 89 1
a 69 68 1
a 69 70 1
a 70 50 1
a 70 90 1
a 70 69 1
a 70 71 1
a 71 51 1
a 71 70 1
a 71 72 1
a 72 52 1
a 72 92 1
a 72 71 1
a 72 73 1
a 73 93 1
a 73 72 1
a 73 74 1
a 74 54 1
a 74 73 1
a 74 75 1
a 75 95 1
a 75 74 1
a 75 76 1
a 76 96 1
a 76 75 1
a 79 59 1
a 79 99 1
a 79 80 1
a 80 60 1
a 80 100 1
a 80 79 1
a 82 62 1
a 82 102 1
a 82 83 1
a 83 103 1
a 83 82 1
a 85 105 1
a 85 86 1
a 86 106 1
a 86 85 1
a 86 87 1
a 87 67 1
a 87 107 1
a 87 86 1
a 87 88 1
a 88 68 1
a 88 87 1
a 88 89 1
a 89 69 1
a 89 88 1
a 89 90 1
a 90 70 1
a 90 110 1
a 90 89 1
a 92 72 1
a 92 93 1
a 93 73 1
a 93 113 1
a 93 92 1
a 95 75 1
a 95 115 1
a 95 96 1
a 96 76 1
a 96 95 1
a 99 79 1
a 99 119 1
a 99 100 1
a 100 80 1
a 100 120 1
a 100 99 1
a 102 82 1
a 102 122 1
a 102 103 1
a 103 83 1
a 103 123 1
a 103 102 1
a 103 104 1
a 104 103 1
a 104 105 1
a 105 85 1
a 105 125 1
a 105 104 1
a 105 106 1
a 106 86 1
a 106 126 1
a 106 105 1
a 106 107 1
a 107 87 1
a 107 106 1
a 110 90 1
a 110 130 1
a 113 93 1
a 115 95 1
a 117 137 1
a 119 99 1
a 119 139 1
a 119 120 1
a 120 100 1
a 120 119 1
a 121 141 1
a 121 122 1
a 122 102 1
a 122 142 1
a 122 121 1
a 122 123 1
a 123 103 1
a 123 143 1
a 123 122 1
a 125 105 1
a 125 145 1
a 125 126 1
a 126 106 1
a 126 146 1
a 126 125 1
a 128 129 1
a 129 149 1
a 129 128 1
a 129 130 1
a 130 110 1
a 130 129 1
a 130 131 1
a 131 130 1
a 131 132 1
a 132 131 1
a 134 154 1
a 136 156 1
a 136 137 1
a 137 117 1
a 137 157 1
a 137 136 1
a 139 119 1
a 139 159 1
a 141 121 1
a 141 161 1
a 141 142 1
a 142 122 1
a 142 162 1
a 142 141 1
a 142 143 1
a 143 123 1
a 143 163 1
a 143 142 1
a 143 144 1
a 144 143 1
a 144 145 1
a 145 125 1
a 145 165 1
a 145 144 1
a 145 146 1
a 146 126 1
a 146 166 1
a 146 145 1
a 149 129 1
a 149 169 1
a 153 173 1
a 153 154 1
a 154 134 1
a 154 174 1
a 154 153 1
a 154 155 1
a 155 175 1
a 155 154 1
a 155 156 1
a 156 136 1
a 156 176 1
a 156 155 1
a 156 157 1
a 157 137 1
a 157 177 1
a 157 156 1
a 157 158 1
a 158 157 1
a 158 159 1
a 159 139 1
a 159 179 1
a 159 158 1
a 161 141 1
a 161 162 1
a 162 142 1
a 162 161 1
a 162 163 1
a 163 143 1
a 163 183 1
a 163 162 1
a 165 145 1
a 165 166 1
a 166 146 1
a 166 165 1
a 168 188 1
a 168 169 1
a 169 149 1
a 169 189 1
a 169 168 1
a 172 192 1
a 172 173 1
a 173 153 1
a 173 193 1
a 173 172 1
a 173 174 1
a 174 154 1
a 174 173 1
a 174 175 1
a 175 155 1
a 175 195 1
a 175 174 1
a 175 176 1
a 176 156 1
a 176 196 1
a 176 175 1
a 176 177 1
a 177 157 1
a 177 176 1
a 179 159 1
a 179 180 1
a 180 179 1
a 183 163 1
a 183 203 1
a 183 184 1
a 184 183 1
a 187 207 1
a 187 188 1
a 188 168 1
a 188 208 1
a 188 187 1
a 188 189 1
a 189 169 1
a 189 188 1
a 189 190 1
a 190 210 1
a 190 189 1
a 192 172 1
a 192 212 1
a 192 193 1
a 193 173 1
a 193 213 1
a 193 192 1
a 195 175 1
a 195 215 1
a 195 196 1
a 196 176 1
a 196 216 1
a 196 195 1
a 201 221 1
a 201 202 1
a 202 222 1
a 202 201 1
a 202 203 1
a 203 183 1
a 203 202 1
a 205 225 1
a 207 187 1
a 207 227 1
a 207 208 1
a 208 188 1
a 208 228 1
a 208 207 1
a 210 190 1
a 212 192 1
a 212 213 1
a 213 193 1
a 213 233 1
a 213 212 1
a 213 214 1
a 214 213 1
a 214 215 1
a 215 195 1
a 215 235 1
a 215 214 1
a 215 216 1
a 216 196 1
a 216 215 1
a 216 217 1
a 217 216 1
a 219 220 1
a 220 219 1
a 221 201 1
a 221 241 1
a 221 222 1
a 222 202 1
a 222 242 1
a 222 221 1
a 224 225 1
a 225 205 1
a 225 245 1
a 225 224 1
a 225 226 1
a 226 246 1
a 226 225 1
a 226 227 1
a 227 207 1
a 227 247 1
a 227 226 1
a 227 228 1
a 228 208 1
a 228 227 1
a 228 229 1
a 229 249 1
a 229 228 1
a 231 251 1
a 233 213 1
a 235 215 1
a 235 255 1
a 238 258 1
a 241 221 1
a 241 242 1
a 242 222 1
a 242 262 1
a 242 241 1
a 245 225 1
a 245 265 1
a 245 246 1
a 246 226 1
a 246 266 1
a 246 245 1
a 246 247 1
a 247 227 1
a 247 267 1
a 247 246 1
a 249 229 1
a 249 269 1
a 249 250 1
a 250 270 1
a 250 249 1
a 250 251 1
a 251 231 1
a 251 271 1
a 251 250 1
a 251 252 1
a 252 272 1
a 252 251 1
a 254 274 1
a 254 255 1
a 255 235 1
a 255 275 1
a 255 254 1
a 257 277 1
a 257 258 1
a 258 238 1
a 258 278 1
a 258 257 1
a 260 280 1
a 262 242 1
a 262 263 1
a 263 283 1
a 263 262 1
a 265 245 1
a 265 285 1
a 265 266 1
a 266 246 1
a 266 286 1
a 266 265 1
a 266 267 1
a 267 247 1
a 267 287 1
a 267 266 1
a 267 268 1
a 268 288 1
a 268 267 1
a 268 269 1
a 269 249 1
a 269 289 1
a 269 268 1
a 269 270 1
a 270 250 1
a 270 290 1
a 270 269 1
a 270 271 1
a 271 251 1
a 271 291 1
a 271 270 1
a 271 272 1
a 272 252 1
a 272 292 1
a 272 271 1
a 272 273 1
a 273 293 1
a 273 272 1
a 273 274 1
a 274 254 1
a 274 294 1
a 274 273 1
a 274 275 1
a 275 255 1
a 275 274 1
a 277 257 1
a 277 278 1
a 278 258 1
a 278 277 1
a 278 279 1
a 279 299 1
a 279 278 1
a 279 280 1
a 280 260 1
a 280 300 1
a 280 279 1
a 283 263 1
a 283 303 1
a 283 284 1
a 284 283 1
a 284 285 1
a 285 265 1
a 285 305 1
a 285 284 1
a 285 286 1
a 286 266 1
a 286 285 1
a 286 287 1
a 287 267 1
a 287 307 1
a 287 286 1
a 287 288 1
a 288 268 1
a 288 287 1
a 288 289 1
a 289 269 1
a 289 309 1
a 289 288 1
a 289 290 1
a 290 270 1
a 290 289 1
a 290 291 1
a 291 271 1
a 291 290 1
a 291 292 1
a 292 272 1
a 292 291 1
a 292 293 1
a 293 273 1
a 293 313 1
a 293 292 1
a 293 294 1
a 294 274 1
a 294 314 1
a 294 293 1
a 296 316 1
a 299 279 1
a 299 300 1
a 300 280 1
a 300 320 1
a 300 299 1
a 303 283 1
a 303 323 1
a 305 285 1
a 305 325 1
a 307 287 1
a 309 289 1
a 309 329 1
a 313 293 1
a 313 333 1
a 313 314 1
a 314 294 1
a 314 334 1
a 314 313 1
a 316 296 1
a 316 336 1
a 320 300 1
a 320 340 1
a 321 322 1
a 322 342 1
a 322 321 1
a 322 323 1
a 323 303 1
a 323 343 1
a 323 322 1
a 323 324 1
a 324 323 1
a 324 325 1
a 325 305 1
a 325 324 1
a 325 326 1
a 326 346 1
a 326 325 1
a 328 348 1
a 328 329 1
a 329 309 1
a 329 349 1
a 329 328 1
a 329 330 1
a 330 329 1
a 332 352 1
a 332 333 1
a 333 313 1
a 333 332 1
a 333 334 1
a 334 314 1
a 334 333 1
a 336 316 1
a 336 356 1
a 336 337 1
a 337 357 1
a 337 336 1
a 337 338 1
a 338 358 1
a 338 337 1
a 338 339 1
a 339 359 1
a 339 338 1
a 339 340 1
a 340 320 1
a 340 360 1
a 340 339 1
a 342 322 1
a 342 362 1
a 342 343 1
a 343 323 1
a 343 342 1
a 346 326 1
a 346 366 1
a 346 347 1
a 347 367 1
a 347 346 1
a 347 348 1
a 348 328 1
a 348 368 1
a 348 347 1
a 348 349 1
a 349 329 1
a 349 369 1
a 349 348 1
a 351 352 1
a 352 332 1
a 352 372 1
a 352 351 1
a 356 336 1
a 356 376 1
a 356 357 1
a 357 337 1
a 357 377 1
a 357 356 1
a 357 358 1
a 358 338 1
a 358 357 1
a 358 359 1
a 359 339 1
a 359 358 1
a 359 360 1
a 360 340 1
a 360 380 1
a 360 359 1
a 361 362 1
a 362 342 1
a 362 382 1
a 362 361 1
a 364 384 1
a 364 365 1
a 365 385 1
a 365 364 1
a 365 366 1
a 366 346 1
a 366 386 1
a 366 365 1
a 366 367 1
a 367 347 1
a 367 366 1
a 367 368 1
a 368 348 1
a 368 388 1
a 368 367 1
a 368 369 1
a 369 349 1
a 369 389 1
a 369 368 1
a 369 370 1
a 370 390 1
a 370 369 1
a 372 352 1
a 372 392 1
a 374 394 1
a 374 375 1
a 375 395 1
a 375 374 1
a 375 376 1
a 376 356 1
a 376 396 1
a 376 375 1
a 376 377 1
a 377 357 1
a 377 397 1
a 377 376 1
a 380 360 1
a 380 400 1
a 382 362 1
a 384 364 1
a 384 385 1
a 385 365 1
a 385 384 1
a 385 386 1
a 386 366 1
a 386 385 1
a 388 368 1
a 388 389 1
a 389 369 1
a 389 388 1
a 389 390 1
a 390 370 1
a 390 389 1
a 392 372 1
a 392 393 1
a 393 392 1
a 393 394 1
a 394 374 1
a 394 393 1
a 394 395 1
a 395 375 1
a 395 394 1
a 395 396 1
a 396 376 1
a 396 395 1
a 396 397 1
a 397 377 1
a 397 396 1
a 397 398 1
a 398 397 1
a 398 399 1
a 399 398 1
a 399 400 1
a 400 380 1
a 400 399 1
